NAME : pr76.214685.tour
COMMENT : Length = 214685
COMMENT : Found by LKH [Keld Helsgaun] Mon Nov 19 09:15:12 2018
TYPE : TOUR
DIMENSION : 90
TOUR_SECTION
1
2
90
46
45
44
48
47
69
68
70
67
51
56
55
52
53
54
42
43
28
27
26
88
5
10
9
6
87
8
74
14
13
15
16
12
11
17
18
37
36
38
39
35
32
30
31
19
20
89
29
33
34
40
41
60
59
61
62
58
57
63
64
73
72
71
65
66
50
49
86
24
85
7
84
25
83
4
82
21
81
76
80
3
79
75
78
22
77
23
-1
EOF
